data/lp_files/q3/123_0.lp
\ Model foo
\ LP format - for model browsing. Use MPS format to capture full model detail.
Minimize
  z
Subject To
 allocateEach[1]: x[1,1] + x[2,1] + x[3,1] + x[4,1] + x[5,1] + x[6,1]
   + x[7,1] = 1
 allocateEach[2]: x[1,2] + x[2,2] + x[3,2] + x[4,2] + x[5,2] + x[6,2]
   + x[7,2] = 1
 allocateEach[3]: x[1,3] + x[2,3] + x[3,3] + x[4,3] + x[5,3] + x[6,3]
   + x[7,3] = 1
 allocateAllCash: cashProportion[1] + cashProportion[2] + cashProportion[3]
   + cashProportion[4] + cashProportion[5] + cashProportion[6]
   + cashProportion[7] = 1
 findWorstP[1,2]: z + 0.0336995349464177 cashProportion[1]
   - 0.0336995349464177 cashProportion[2] + 0.0751499629305116 x[1,1]
   + 0.4002830760935498 x[1,2] + 0.4908674260295207 x[1,3]
   - 0.0751499629305116 x[2,1] - 0.4002830760935498 x[2,2]
   - 0.4908674260295207 x[2,3] >= 0
 findWorstP[1,3]: z + 0.0336995349464177 cashProportion[1]
   - 0.0336995349464177 cashProportion[3] + 0.0751499629305116 x[1,1]
   + 0.4002830760935498 x[1,2] + 0.4908674260295207 x[1,3]
   - 0.0751499629305116 x[3,1] - 0.4002830760935498 x[3,2]
   - 0.4908674260295207 x[3,3] >= 0
 findWorstP[1,4]: z + 0.0336995349464177 cashProportion[1]
   - 0.0336995349464177 cashProportion[4] + 0.0751499629305116 x[1,1]
   + 0.4002830760935498 x[1,2] + 0.4908674260295207 x[1,3]
   - 0.0751499629305116 x[4,1] - 0.4002830760935498 x[4,2]
   - 0.4908674260295207 x[4,3] >= 0
 findWorstP[1,5]: z + 0.0336995349464177 cashProportion[1]
   - 0.0336995349464177 cashProportion[5] + 0.0751499629305116 x[1,1]
   + 0.4002830760935498 x[1,2] + 0.4908674260295207 x[1,3]
   - 0.0751499629305116 x[5,1] - 0.4002830760935498 x[5,2]
   - 0.4908674260295207 x[5,3] >= 0
 findWorstP[1,6]: z + 0.0336995349464177 cashProportion[1]
   - 0.0336995349464177 cashProportion[6] + 0.0751499629305116 x[1,1]
   + 0.4002830760935498 x[1,2] + 0.4908674260295207 x[1,3]
   - 0.0751499629305116 x[6,1] - 0.4002830760935498 x[6,2]
   - 0.4908674260295207 x[6,3] >= 0
 findWorstP[1,7]: z + 0.0336995349464177 cashProportion[1]
   - 0.0336995349464177 cashProportion[7] + 0.0751499629305116 x[1,1]
   + 0.4002830760935498 x[1,2] + 0.4908674260295207 x[1,3]
   - 0.0751499629305116 x[7,1] - 0.4002830760935498 x[7,2]
   - 0.4908674260295207 x[7,3] >= 0
 findWorstP[2,1]: z - 0.0411048997040447 cashProportion[1]
   + 0.0411048997040447 cashProportion[2] - 0.2469582374219007 x[1,1]
   - 0.2264879973692864 x[1,2] - 0.4854488655047681 x[1,3]
   + 0.2469582374219007 x[2,1] + 0.2264879973692864 x[2,2]
   + 0.4854488655047681 x[2,3] >= 0
 findWorstP[2,3]: z + 0.0411048997040447 cashProportion[2]
   - 0.0411048997040447 cashProportion[3] + 0.2469582374219007 x[2,1]
   + 0.2264879973692864 x[2,2] + 0.4854488655047681 x[2,3]
   - 0.2469582374219007 x[3,1] - 0.2264879973692864 x[3,2]
   - 0.4854488655047681 x[3,3] >= 0
 findWorstP[2,4]: z + 0.0411048997040447 cashProportion[2]
   - 0.0411048997040447 cashProportion[4] + 0.2469582374219007 x[2,1]
   + 0.2264879973692864 x[2,2] + 0.4854488655047681 x[2,3]
   - 0.2469582374219007 x[4,1] - 0.2264879973692864 x[4,2]
   - 0.4854488655047681 x[4,3] >= 0
 findWorstP[2,5]: z + 0.0411048997040447 cashProportion[2]
   - 0.0411048997040447 cashProportion[5] + 0.2469582374219007 x[2,1]
   + 0.2264879973692864 x[2,2] + 0.4854488655047681 x[2,3]
   - 0.2469582374219007 x[5,1] - 0.2264879973692864 x[5,2]
   - 0.4854488655047681 x[5,3] >= 0
 findWorstP[2,6]: z + 0.0411048997040447 cashProportion[2]
   - 0.0411048997040447 cashProportion[6] + 0.2469582374219007 x[2,1]
   + 0.2264879973692864 x[2,2] + 0.4854488655047681 x[2,3]
   - 0.2469582374219007 x[6,1] - 0.2264879973692864 x[6,2]
   - 0.4854488655047681 x[6,3] >= 0
 findWorstP[2,7]: z + 0.0411048997040447 cashProportion[2]
   - 0.0411048997040447 cashProportion[7] + 0.2469582374219007 x[2,1]
   + 0.2264879973692864 x[2,2] + 0.4854488655047681 x[2,3]
   - 0.2469582374219007 x[7,1] - 0.2264879973692864 x[7,2]
   - 0.4854488655047681 x[7,3] >= 0
 findWorstP[3,1]: z - 0.0313617261494073 cashProportion[1]
   + 0.0313617261494073 cashProportion[3] - 0.5746722699617386 x[1,1]
   - 0.2344602646929687 x[1,2] - 0.1595057391958853 x[1,3]
   + 0.5746722699617386 x[3,1] + 0.2344602646929687 x[3,2]
   + 0.1595057391958853 x[3,3] >= 0
 findWorstP[3,2]: z - 0.0313617261494073 cashProportion[2]
   + 0.0313617261494073 cashProportion[3] - 0.5746722699617386 x[2,1]
   - 0.2344602646929687 x[2,2] - 0.1595057391958853 x[2,3]
   + 0.5746722699617386 x[3,1] + 0.2344602646929687 x[3,2]
   + 0.1595057391958853 x[3,3] >= 0
 findWorstP[3,4]: z + 0.0313617261494073 cashProportion[3]
   - 0.0313617261494073 cashProportion[4] + 0.5746722699617386 x[3,1]
   + 0.2344602646929687 x[3,2] + 0.1595057391958853 x[3,3]
   - 0.5746722699617386 x[4,1] - 0.2344602646929687 x[4,2]
   - 0.1595057391958853 x[4,3] >= 0
 findWorstP[3,5]: z + 0.0313617261494073 cashProportion[3]
   - 0.0313617261494073 cashProportion[5] + 0.5746722699617386 x[3,1]
   + 0.2344602646929687 x[3,2] + 0.1595057391958853 x[3,3]
   - 0.5746722699617386 x[5,1] - 0.2344602646929687 x[5,2]
   - 0.1595057391958853 x[5,3] >= 0
 findWorstP[3,6]: z + 0.0313617261494073 cashProportion[3]
   - 0.0313617261494073 cashProportion[6] + 0.5746722699617386 x[3,1]
   + 0.2344602646929687 x[3,2] + 0.1595057391958853 x[3,3]
   - 0.5746722699617386 x[6,1] - 0.2344602646929687 x[6,2]
   - 0.1595057391958853 x[6,3] >= 0
 findWorstP[3,7]: z + 0.0313617261494073 cashProportion[3]
   - 0.0313617261494073 cashProportion[7] + 0.5746722699617386 x[3,1]
   + 0.2344602646929687 x[3,2] + 0.1595057391958853 x[3,3]
   - 0.5746722699617386 x[7,1] - 0.2344602646929687 x[7,2]
   - 0.1595057391958853 x[7,3] >= 0
 findWorstP[4,1]: z - 0.0557537912578055 cashProportion[1]
   + 0.0557537912578055 cashProportion[4] - 0.2890276538804639 x[1,1]
   - 0.2647190008920606 x[1,2] - 0.39049955396967 x[1,3]
   + 0.2890276538804639 x[4,1] + 0.2647190008920606 x[4,2]
   + 0.39049955396967 x[4,3] >= 0
 findWorstP[4,2]: z - 0.0557537912578055 cashProportion[2]
   + 0.0557537912578055 cashProportion[4] - 0.2890276538804639 x[2,1]
   - 0.2647190008920606 x[2,2] - 0.39049955396967 x[2,3]
   + 0.2890276538804639 x[4,1] + 0.2647190008920606 x[4,2]
   + 0.39049955396967 x[4,3] >= 0
 findWorstP[4,3]: z - 0.0557537912578055 cashProportion[3]
   + 0.0557537912578055 cashProportion[4] - 0.2890276538804639 x[3,1]
   - 0.2647190008920606 x[3,2] - 0.39049955396967 x[3,3]
   + 0.2890276538804639 x[4,1] + 0.2647190008920606 x[4,2]
   + 0.39049955396967 x[4,3] >= 0
 findWorstP[4,5]: z + 0.0557537912578055 cashProportion[4]
   - 0.0557537912578055 cashProportion[5] + 0.2890276538804639 x[4,1]
   + 0.2647190008920606 x[4,2] + 0.39049955396967 x[4,3]
   - 0.2890276538804639 x[5,1] - 0.2647190008920606 x[5,2]
   - 0.39049955396967 x[5,3] >= 0
 findWorstP[4,6]: z + 0.0557537912578055 cashProportion[4]
   - 0.0557537912578055 cashProportion[6] + 0.2890276538804639 x[4,1]
   + 0.2647190008920606 x[4,2] + 0.39049955396967 x[4,3]
   - 0.2890276538804639 x[6,1] - 0.2647190008920606 x[6,2]
   - 0.39049955396967 x[6,3] >= 0
 findWorstP[4,7]: z + 0.0557537912578055 cashProportion[4]
   - 0.0557537912578055 cashProportion[7] + 0.2890276538804639 x[4,1]
   + 0.2647190008920606 x[4,2] + 0.39049955396967 x[4,3]
   - 0.2890276538804639 x[7,1] - 0.2647190008920606 x[7,2]
   - 0.39049955396967 x[7,3] >= 0
 findWorstP[5,1]: z - 0.046952765517889 cashProportion[1]
   + 0.046952765517889 cashProportion[5] - 0.0195323504554418 x[1,1]
   - 0.0211287444830501 x[1,2] - 0.9123861395436191 x[1,3]
   + 0.0195323504554418 x[5,1] + 0.0211287444830501 x[5,2]
   + 0.9123861395436191 x[5,3] >= 0
 findWorstP[5,2]: z - 0.046952765517889 cashProportion[2]
   + 0.046952765517889 cashProportion[5] - 0.0195323504554418 x[2,1]
   - 0.0211287444830501 x[2,2] - 0.9123861395436191 x[2,3]
   + 0.0195323504554418 x[5,1] + 0.0211287444830501 x[5,2]
   + 0.9123861395436191 x[5,3] >= 0
 findWorstP[5,3]: z - 0.046952765517889 cashProportion[3]
   + 0.046952765517889 cashProportion[5] - 0.0195323504554418 x[3,1]
   - 0.0211287444830501 x[3,2] - 0.9123861395436191 x[3,3]
   + 0.0195323504554418 x[5,1] + 0.0211287444830501 x[5,2]
   + 0.9123861395436191 x[5,3] >= 0
 findWorstP[5,4]: z - 0.046952765517889 cashProportion[4]
   + 0.046952765517889 cashProportion[5] - 0.0195323504554418 x[4,1]
   - 0.0211287444830501 x[4,2] - 0.9123861395436191 x[4,3]
   + 0.0195323504554418 x[5,1] + 0.0211287444830501 x[5,2]
   + 0.9123861395436191 x[5,3] >= 0
 findWorstP[5,6]: z + 0.046952765517889 cashProportion[5]
   - 0.046952765517889 cashProportion[6] + 0.0195323504554418 x[5,1]
   + 0.0211287444830501 x[5,2] + 0.9123861395436191 x[5,3]
   - 0.0195323504554418 x[6,1] - 0.0211287444830501 x[6,2]
   - 0.9123861395436191 x[6,3] >= 0
 findWorstP[5,7]: z + 0.046952765517889 cashProportion[5]
   - 0.046952765517889 cashProportion[7] + 0.0195323504554418 x[5,1]
   + 0.0211287444830501 x[5,2] + 0.9123861395436191 x[5,3]
   - 0.0195323504554418 x[7,1] - 0.0211287444830501 x[7,2]
   - 0.9123861395436191 x[7,3] >= 0
 findWorstP[6,1]: z - 0.0282869427472279 cashProportion[1]
   + 0.0282869427472279 cashProportion[6] - 0.2006675718488346 x[1,1]
   - 0.3880968544919665 x[1,2] - 0.382948630911971 x[1,3]
   + 0.2006675718488346 x[6,1] + 0.3880968544919665 x[6,2]
   + 0.382948630911971 x[6,3] >= 0
 findWorstP[6,2]: z - 0.0282869427472279 cashProportion[2]
   + 0.0282869427472279 cashProportion[6] - 0.2006675718488346 x[2,1]
   - 0.3880968544919665 x[2,2] - 0.382948630911971 x[2,3]
   + 0.2006675718488346 x[6,1] + 0.3880968544919665 x[6,2]
   + 0.382948630911971 x[6,3] >= 0
 findWorstP[6,3]: z - 0.0282869427472279 cashProportion[3]
   + 0.0282869427472279 cashProportion[6] - 0.2006675718488346 x[3,1]
   - 0.3880968544919665 x[3,2] - 0.382948630911971 x[3,3]
   + 0.2006675718488346 x[6,1] + 0.3880968544919665 x[6,2]
   + 0.382948630911971 x[6,3] >= 0
 findWorstP[6,4]: z - 0.0282869427472279 cashProportion[4]
   + 0.0282869427472279 cashProportion[6] - 0.2006675718488346 x[4,1]
   - 0.3880968544919665 x[4,2] - 0.382948630911971 x[4,3]
   + 0.2006675718488346 x[6,1] + 0.3880968544919665 x[6,2]
   + 0.382948630911971 x[6,3] >= 0
 findWorstP[6,5]: z - 0.0282869427472279 cashProportion[5]
   + 0.0282869427472279 cashProportion[6] - 0.2006675718488346 x[5,1]
   - 0.3880968544919665 x[5,2] - 0.382948630911971 x[5,3]
   + 0.2006675718488346 x[6,1] + 0.3880968544919665 x[6,2]
   + 0.382948630911971 x[6,3] >= 0
 findWorstP[6,7]: z + 0.0282869427472279 cashProportion[6]
   - 0.0282869427472279 cashProportion[7] + 0.2006675718488346 x[6,1]
   + 0.3880968544919665 x[6,2] + 0.382948630911971 x[6,3]
   - 0.2006675718488346 x[7,1] - 0.3880968544919665 x[7,2]
   - 0.382948630911971 x[7,3] >= 0
 findWorstP[7,1]: z - 0.0282246683601468 cashProportion[1]
   + 0.0282246683601468 cashProportion[7] - 0.2626587637595258 x[1,1]
   - 0.146542478125882 x[1,2] - 0.5625740897544453 x[1,3]
   + 0.2626587637595258 x[7,1] + 0.146542478125882 x[7,2]
   + 0.5625740897544453 x[7,3] >= 0
 findWorstP[7,2]: z - 0.0282246683601468 cashProportion[2]
   + 0.0282246683601468 cashProportion[7] - 0.2626587637595258 x[2,1]
   - 0.146542478125882 x[2,2] - 0.5625740897544453 x[2,3]
   + 0.2626587637595258 x[7,1] + 0.146542478125882 x[7,2]
   + 0.5625740897544453 x[7,3] >= 0
 findWorstP[7,3]: z - 0.0282246683601468 cashProportion[3]
   + 0.0282246683601468 cashProportion[7] - 0.2626587637595258 x[3,1]
   - 0.146542478125882 x[3,2] - 0.5625740897544453 x[3,3]
   + 0.2626587637595258 x[7,1] + 0.146542478125882 x[7,2]
   + 0.5625740897544453 x[7,3] >= 0
 findWorstP[7,4]: z - 0.0282246683601468 cashProportion[4]
   + 0.0282246683601468 cashProportion[7] - 0.2626587637595258 x[4,1]
   - 0.146542478125882 x[4,2] - 0.5625740897544453 x[4,3]
   + 0.2626587637595258 x[7,1] + 0.146542478125882 x[7,2]
   + 0.5625740897544453 x[7,3] >= 0
 findWorstP[7,5]: z - 0.0282246683601468 cashProportion[5]
   + 0.0282246683601468 cashProportion[7] - 0.2626587637595258 x[5,1]
   - 0.146542478125882 x[5,2] - 0.5625740897544453 x[5,3]
   + 0.2626587637595258 x[7,1] + 0.146542478125882 x[7,2]
   + 0.5625740897544453 x[7,3] >= 0
 findWorstP[7,6]: z - 0.0282246683601468 cashProportion[6]
   + 0.0282246683601468 cashProportion[7] - 0.2626587637595258 x[6,1]
   - 0.146542478125882 x[6,2] - 0.5625740897544453 x[6,3]
   + 0.2626587637595258 x[7,1] + 0.146542478125882 x[7,2]
   + 0.5625740897544453 x[7,3] >= 0
Bounds
 z <= 1
 -infinity <= cashProportion[1] <= 1
 -infinity <= cashProportion[2] <= 1
 -infinity <= cashProportion[3] <= 1
 -infinity <= cashProportion[4] <= 1
 -infinity <= cashProportion[5] <= 1
 -infinity <= cashProportion[6] <= 1
 -infinity <= cashProportion[7] <= 1
Binaries
 x[1,1] x[1,2] x[1,3] x[2,1] x[2,2] x[2,3] x[3,1] x[3,2] x[3,3] x[4,1]
 x[4,2] x[4,3] x[5,1] x[5,2] x[5,3] x[6,1] x[6,2] x[6,3] x[7,1] x[7,2]
 x[7,3]
End
