data/mps_files/pEFS/123_0.mps
NAME foo
ROWS
 N  OBJ
 E  allocateEach[1]
 E  allocateEach[2]
 E  allocateEach[3]
 E  allocateAllCash
 G  findWorstP[1,2]
 G  findWorstP[1,3]
 G  findWorstP[1,4]
 G  findWorstP[1,5]
 G  findWorstP[1,6]
 G  findWorstP[1,7]
 G  findWorstP[2,1]
 G  findWorstP[2,3]
 G  findWorstP[2,4]
 G  findWorstP[2,5]
 G  findWorstP[2,6]
 G  findWorstP[2,7]
 G  findWorstP[3,1]
 G  findWorstP[3,2]
 G  findWorstP[3,4]
 G  findWorstP[3,5]
 G  findWorstP[3,6]
 G  findWorstP[3,7]
 G  findWorstP[4,1]
 G  findWorstP[4,2]
 G  findWorstP[4,3]
 G  findWorstP[4,5]
 G  findWorstP[4,6]
 G  findWorstP[4,7]
 G  findWorstP[5,1]
 G  findWorstP[5,2]
 G  findWorstP[5,3]
 G  findWorstP[5,4]
 G  findWorstP[5,6]
 G  findWorstP[5,7]
 G  findWorstP[6,1]
 G  findWorstP[6,2]
 G  findWorstP[6,3]
 G  findWorstP[6,4]
 G  findWorstP[6,5]
 G  findWorstP[6,7]
 G  findWorstP[7,1]
 G  findWorstP[7,2]
 G  findWorstP[7,3]
 G  findWorstP[7,4]
 G  findWorstP[7,5]
 G  findWorstP[7,6]
COLUMNS
    z         OBJ       1
    z         findWorstP[1,2]  1
    z         findWorstP[1,3]  1
    z         findWorstP[1,4]  1
    z         findWorstP[1,5]  1
    z         findWorstP[1,6]  1
    z         findWorstP[1,7]  1
    z         findWorstP[2,1]  1
    z         findWorstP[2,3]  1
    z         findWorstP[2,4]  1
    z         findWorstP[2,5]  1
    z         findWorstP[2,6]  1
    z         findWorstP[2,7]  1
    z         findWorstP[3,1]  1
    z         findWorstP[3,2]  1
    z         findWorstP[3,4]  1
    z         findWorstP[3,5]  1
    z         findWorstP[3,6]  1
    z         findWorstP[3,7]  1
    z         findWorstP[4,1]  1
    z         findWorstP[4,2]  1
    z         findWorstP[4,3]  1
    z         findWorstP[4,5]  1
    z         findWorstP[4,6]  1
    z         findWorstP[4,7]  1
    z         findWorstP[5,1]  1
    z         findWorstP[5,2]  1
    z         findWorstP[5,3]  1
    z         findWorstP[5,4]  1
    z         findWorstP[5,6]  1
    z         findWorstP[5,7]  1
    z         findWorstP[6,1]  1
    z         findWorstP[6,2]  1
    z         findWorstP[6,3]  1
    z         findWorstP[6,4]  1
    z         findWorstP[6,5]  1
    z         findWorstP[6,7]  1
    z         findWorstP[7,1]  1
    z         findWorstP[7,2]  1
    z         findWorstP[7,3]  1
    z         findWorstP[7,4]  1
    z         findWorstP[7,5]  1
    z         findWorstP[7,6]  1
    cashProportion[1]  allocateAllCash  1
    cashProportion[1]  findWorstP[1,2]  3.3699534946417739e-02
    cashProportion[1]  findWorstP[1,3]  3.3699534946417739e-02
    cashProportion[1]  findWorstP[1,4]  3.3699534946417739e-02
    cashProportion[1]  findWorstP[1,5]  3.3699534946417739e-02
    cashProportion[1]  findWorstP[1,6]  3.3699534946417739e-02
    cashProportion[1]  findWorstP[1,7]  3.3699534946417739e-02
    cashProportion[1]  findWorstP[2,1]  -4.1104899704044719e-02
    cashProportion[1]  findWorstP[3,1]  -3.1361726149407264e-02
    cashProportion[1]  findWorstP[4,1]  -5.5753791257805531e-02
    cashProportion[1]  findWorstP[5,1]  -4.6952765517889010e-02
    cashProportion[1]  findWorstP[6,1]  -2.8286942747227879e-02
    cashProportion[1]  findWorstP[7,1]  -2.8224668360146768e-02
    cashProportion[2]  allocateAllCash  1
    cashProportion[2]  findWorstP[1,2]  -3.3699534946417739e-02
    cashProportion[2]  findWorstP[2,1]  4.1104899704044719e-02
    cashProportion[2]  findWorstP[2,3]  4.1104899704044719e-02
    cashProportion[2]  findWorstP[2,4]  4.1104899704044719e-02
    cashProportion[2]  findWorstP[2,5]  4.1104899704044719e-02
    cashProportion[2]  findWorstP[2,6]  4.1104899704044719e-02
    cashProportion[2]  findWorstP[2,7]  4.1104899704044719e-02
    cashProportion[2]  findWorstP[3,2]  -3.1361726149407264e-02
    cashProportion[2]  findWorstP[4,2]  -5.5753791257805531e-02
    cashProportion[2]  findWorstP[5,2]  -4.6952765517889010e-02
    cashProportion[2]  findWorstP[6,2]  -2.8286942747227879e-02
    cashProportion[2]  findWorstP[7,2]  -2.8224668360146768e-02
    cashProportion[3]  allocateAllCash  1
    cashProportion[3]  findWorstP[1,3]  -3.3699534946417739e-02
    cashProportion[3]  findWorstP[2,3]  -4.1104899704044719e-02
    cashProportion[3]  findWorstP[3,1]  3.1361726149407264e-02
    cashProportion[3]  findWorstP[3,2]  3.1361726149407264e-02
    cashProportion[3]  findWorstP[3,4]  3.1361726149407264e-02
    cashProportion[3]  findWorstP[3,5]  3.1361726149407264e-02
    cashProportion[3]  findWorstP[3,6]  3.1361726149407264e-02
    cashProportion[3]  findWorstP[3,7]  3.1361726149407264e-02
    cashProportion[3]  findWorstP[4,3]  -5.5753791257805531e-02
    cashProportion[3]  findWorstP[5,3]  -4.6952765517889010e-02
    cashProportion[3]  findWorstP[6,3]  -2.8286942747227879e-02
    cashProportion[3]  findWorstP[7,3]  -2.8224668360146768e-02
    cashProportion[4]  allocateAllCash  1
    cashProportion[4]  findWorstP[1,4]  -3.3699534946417739e-02
    cashProportion[4]  findWorstP[2,4]  -4.1104899704044719e-02
    cashProportion[4]  findWorstP[3,4]  -3.1361726149407264e-02
    cashProportion[4]  findWorstP[4,1]  5.5753791257805531e-02
    cashProportion[4]  findWorstP[4,2]  5.5753791257805531e-02
    cashProportion[4]  findWorstP[4,3]  5.5753791257805531e-02
    cashProportion[4]  findWorstP[4,5]  5.5753791257805531e-02
    cashProportion[4]  findWorstP[4,6]  5.5753791257805531e-02
    cashProportion[4]  findWorstP[4,7]  5.5753791257805531e-02
    cashProportion[4]  findWorstP[5,4]  -4.6952765517889010e-02
    cashProportion[4]  findWorstP[6,4]  -2.8286942747227879e-02
    cashProportion[4]  findWorstP[7,4]  -2.8224668360146768e-02
    cashProportion[5]  allocateAllCash  1
    cashProportion[5]  findWorstP[1,5]  -3.3699534946417739e-02
    cashProportion[5]  findWorstP[2,5]  -4.1104899704044719e-02
    cashProportion[5]  findWorstP[3,5]  -3.1361726149407264e-02
    cashProportion[5]  findWorstP[4,5]  -5.5753791257805531e-02
    cashProportion[5]  findWorstP[5,1]  4.6952765517889010e-02
    cashProportion[5]  findWorstP[5,2]  4.6952765517889010e-02
    cashProportion[5]  findWorstP[5,3]  4.6952765517889010e-02
    cashProportion[5]  findWorstP[5,4]  4.6952765517889010e-02
    cashProportion[5]  findWorstP[5,6]  4.6952765517889010e-02
    cashProportion[5]  findWorstP[5,7]  4.6952765517889010e-02
    cashProportion[5]  findWorstP[6,5]  -2.8286942747227879e-02
    cashProportion[5]  findWorstP[7,5]  -2.8224668360146768e-02
    cashProportion[6]  allocateAllCash  1
    cashProportion[6]  findWorstP[1,6]  -3.3699534946417739e-02
    cashProportion[6]  findWorstP[2,6]  -4.1104899704044719e-02
    cashProportion[6]  findWorstP[3,6]  -3.1361726149407264e-02
    cashProportion[6]  findWorstP[4,6]  -5.5753791257805531e-02
    cashProportion[6]  findWorstP[5,6]  -4.6952765517889010e-02
    cashProportion[6]  findWorstP[6,1]  2.8286942747227879e-02
    cashProportion[6]  findWorstP[6,2]  2.8286942747227879e-02
    cashProportion[6]  findWorstP[6,3]  2.8286942747227879e-02
    cashProportion[6]  findWorstP[6,4]  2.8286942747227879e-02
    cashProportion[6]  findWorstP[6,5]  2.8286942747227879e-02
    cashProportion[6]  findWorstP[6,7]  2.8286942747227879e-02
    cashProportion[6]  findWorstP[7,6]  -2.8224668360146768e-02
    cashProportion[7]  allocateAllCash  1
    cashProportion[7]  findWorstP[1,7]  -3.3699534946417739e-02
    cashProportion[7]  findWorstP[2,7]  -4.1104899704044719e-02
    cashProportion[7]  findWorstP[3,7]  -3.1361726149407264e-02
    cashProportion[7]  findWorstP[4,7]  -5.5753791257805531e-02
    cashProportion[7]  findWorstP[5,7]  -4.6952765517889010e-02
    cashProportion[7]  findWorstP[6,7]  -2.8286942747227879e-02
    cashProportion[7]  findWorstP[7,1]  2.8224668360146768e-02
    cashProportion[7]  findWorstP[7,2]  2.8224668360146768e-02
    cashProportion[7]  findWorstP[7,3]  2.8224668360146768e-02
    cashProportion[7]  findWorstP[7,4]  2.8224668360146768e-02
    cashProportion[7]  findWorstP[7,5]  2.8224668360146768e-02
    cashProportion[7]  findWorstP[7,6]  2.8224668360146768e-02
    MARKER    'MARKER'                 'INTORG'
    x[1,1]    allocateEach[1]  1
    x[1,1]    findWorstP[1,2]  7.5149962930511557e-02
    x[1,1]    findWorstP[1,3]  7.5149962930511557e-02
    x[1,1]    findWorstP[1,4]  7.5149962930511557e-02
    x[1,1]    findWorstP[1,5]  7.5149962930511557e-02
    x[1,1]    findWorstP[1,6]  7.5149962930511557e-02
    x[1,1]    findWorstP[1,7]  7.5149962930511557e-02
    x[1,1]    findWorstP[2,1]  -2.4695823742190065e-01
    x[1,1]    findWorstP[3,1]  -5.7467226996173859e-01
    x[1,1]    findWorstP[4,1]  -2.8902765388046386e-01
    x[1,1]    findWorstP[5,1]  -1.9532350455441827e-02
    x[1,1]    findWorstP[6,1]  -2.0066757184883457e-01
    x[1,1]    findWorstP[7,1]  -2.6265876375952579e-01
    x[1,2]    allocateEach[2]  1
    x[1,2]    findWorstP[1,2]  4.0028307609354985e-01
    x[1,2]    findWorstP[1,3]  4.0028307609354985e-01
    x[1,2]    findWorstP[1,4]  4.0028307609354985e-01
    x[1,2]    findWorstP[1,5]  4.0028307609354985e-01
    x[1,2]    findWorstP[1,6]  4.0028307609354985e-01
    x[1,2]    findWorstP[1,7]  4.0028307609354985e-01
    x[1,2]    findWorstP[2,1]  -2.2648799736928640e-01
    x[1,2]    findWorstP[3,1]  -2.3446026469296868e-01
    x[1,2]    findWorstP[4,1]  -2.6471900089206063e-01
    x[1,2]    findWorstP[5,1]  -2.1128744483050053e-02
    x[1,2]    findWorstP[6,1]  -3.8809685449196651e-01
    x[1,2]    findWorstP[7,1]  -0.146542478125882
    x[1,3]    allocateEach[3]  1
    x[1,3]    findWorstP[1,2]  4.9086742602952071e-01
    x[1,3]    findWorstP[1,3]  4.9086742602952071e-01
    x[1,3]    findWorstP[1,4]  4.9086742602952071e-01
    x[1,3]    findWorstP[1,5]  4.9086742602952071e-01
    x[1,3]    findWorstP[1,6]  4.9086742602952071e-01
    x[1,3]    findWorstP[1,7]  4.9086742602952071e-01
    x[1,3]    findWorstP[2,1]  -4.8544886550476812e-01
    x[1,3]    findWorstP[3,1]  -1.5950573919588534e-01
    x[1,3]    findWorstP[4,1]  -3.9049955396966995e-01
    x[1,3]    findWorstP[5,1]  -9.1238613954361913e-01
    x[1,3]    findWorstP[6,1]  -3.8294863091197096e-01
    x[1,3]    findWorstP[7,1]  -5.6257408975444534e-01
    x[2,1]    allocateEach[1]  1
    x[2,1]    findWorstP[1,2]  -7.5149962930511557e-02
    x[2,1]    findWorstP[2,1]  2.4695823742190065e-01
    x[2,1]    findWorstP[2,3]  2.4695823742190065e-01
    x[2,1]    findWorstP[2,4]  2.4695823742190065e-01
    x[2,1]    findWorstP[2,5]  2.4695823742190065e-01
    x[2,1]    findWorstP[2,6]  2.4695823742190065e-01
    x[2,1]    findWorstP[2,7]  2.4695823742190065e-01
    x[2,1]    findWorstP[3,2]  -5.7467226996173859e-01
    x[2,1]    findWorstP[4,2]  -2.8902765388046386e-01
    x[2,1]    findWorstP[5,2]  -1.9532350455441827e-02
    x[2,1]    findWorstP[6,2]  -2.0066757184883457e-01
    x[2,1]    findWorstP[7,2]  -2.6265876375952579e-01
    x[2,2]    allocateEach[2]  1
    x[2,2]    findWorstP[1,2]  -4.0028307609354985e-01
    x[2,2]    findWorstP[2,1]  2.2648799736928640e-01
    x[2,2]    findWorstP[2,3]  2.2648799736928640e-01
    x[2,2]    findWorstP[2,4]  2.2648799736928640e-01
    x[2,2]    findWorstP[2,5]  2.2648799736928640e-01
    x[2,2]    findWorstP[2,6]  2.2648799736928640e-01
    x[2,2]    findWorstP[2,7]  2.2648799736928640e-01
    x[2,2]    findWorstP[3,2]  -2.3446026469296868e-01
    x[2,2]    findWorstP[4,2]  -2.6471900089206063e-01
    x[2,2]    findWorstP[5,2]  -2.1128744483050053e-02
    x[2,2]    findWorstP[6,2]  -3.8809685449196651e-01
    x[2,2]    findWorstP[7,2]  -0.146542478125882
    x[2,3]    allocateEach[3]  1
    x[2,3]    findWorstP[1,2]  -4.9086742602952071e-01
    x[2,3]    findWorstP[2,1]  4.8544886550476812e-01
    x[2,3]    findWorstP[2,3]  4.8544886550476812e-01
    x[2,3]    findWorstP[2,4]  4.8544886550476812e-01
    x[2,3]    findWorstP[2,5]  4.8544886550476812e-01
    x[2,3]    findWorstP[2,6]  4.8544886550476812e-01
    x[2,3]    findWorstP[2,7]  4.8544886550476812e-01
    x[2,3]    findWorstP[3,2]  -1.5950573919588534e-01
    x[2,3]    findWorstP[4,2]  -3.9049955396966995e-01
    x[2,3]    findWorstP[5,2]  -9.1238613954361913e-01
    x[2,3]    findWorstP[6,2]  -3.8294863091197096e-01
    x[2,3]    findWorstP[7,2]  -5.6257408975444534e-01
    x[3,1]    allocateEach[1]  1
    x[3,1]    findWorstP[1,3]  -7.5149962930511557e-02
    x[3,1]    findWorstP[2,3]  -2.4695823742190065e-01
    x[3,1]    findWorstP[3,1]  5.7467226996173859e-01
    x[3,1]    findWorstP[3,2]  5.7467226996173859e-01
    x[3,1]    findWorstP[3,4]  5.7467226996173859e-01
    x[3,1]    findWorstP[3,5]  5.7467226996173859e-01
    x[3,1]    findWorstP[3,6]  5.7467226996173859e-01
    x[3,1]    findWorstP[3,7]  5.7467226996173859e-01
    x[3,1]    findWorstP[4,3]  -2.8902765388046386e-01
    x[3,1]    findWorstP[5,3]  -1.9532350455441827e-02
    x[3,1]    findWorstP[6,3]  -2.0066757184883457e-01
    x[3,1]    findWorstP[7,3]  -2.6265876375952579e-01
    x[3,2]    allocateEach[2]  1
    x[3,2]    findWorstP[1,3]  -4.0028307609354985e-01
    x[3,2]    findWorstP[2,3]  -2.2648799736928640e-01
    x[3,2]    findWorstP[3,1]  2.3446026469296868e-01
    x[3,2]    findWorstP[3,2]  2.3446026469296868e-01
    x[3,2]    findWorstP[3,4]  2.3446026469296868e-01
    x[3,2]    findWorstP[3,5]  2.3446026469296868e-01
    x[3,2]    findWorstP[3,6]  2.3446026469296868e-01
    x[3,2]    findWorstP[3,7]  2.3446026469296868e-01
    x[3,2]    findWorstP[4,3]  -2.6471900089206063e-01
    x[3,2]    findWorstP[5,3]  -2.1128744483050053e-02
    x[3,2]    findWorstP[6,3]  -3.8809685449196651e-01
    x[3,2]    findWorstP[7,3]  -0.146542478125882
    x[3,3]    allocateEach[3]  1
    x[3,3]    findWorstP[1,3]  -4.9086742602952071e-01
    x[3,3]    findWorstP[2,3]  -4.8544886550476812e-01
    x[3,3]    findWorstP[3,1]  1.5950573919588534e-01
    x[3,3]    findWorstP[3,2]  1.5950573919588534e-01
    x[3,3]    findWorstP[3,4]  1.5950573919588534e-01
    x[3,3]    findWorstP[3,5]  1.5950573919588534e-01
    x[3,3]    findWorstP[3,6]  1.5950573919588534e-01
    x[3,3]    findWorstP[3,7]  1.5950573919588534e-01
    x[3,3]    findWorstP[4,3]  -3.9049955396966995e-01
    x[3,3]    findWorstP[5,3]  -9.1238613954361913e-01
    x[3,3]    findWorstP[6,3]  -3.8294863091197096e-01
    x[3,3]    findWorstP[7,3]  -5.6257408975444534e-01
    x[4,1]    allocateEach[1]  1
    x[4,1]    findWorstP[1,4]  -7.5149962930511557e-02
    x[4,1]    findWorstP[2,4]  -2.4695823742190065e-01
    x[4,1]    findWorstP[3,4]  -5.7467226996173859e-01
    x[4,1]    findWorstP[4,1]  2.8902765388046386e-01
    x[4,1]    findWorstP[4,2]  2.8902765388046386e-01
    x[4,1]    findWorstP[4,3]  2.8902765388046386e-01
    x[4,1]    findWorstP[4,5]  2.8902765388046386e-01
    x[4,1]    findWorstP[4,6]  2.8902765388046386e-01
    x[4,1]    findWorstP[4,7]  2.8902765388046386e-01
    x[4,1]    findWorstP[5,4]  -1.9532350455441827e-02
    x[4,1]    findWorstP[6,4]  -2.0066757184883457e-01
    x[4,1]    findWorstP[7,4]  -2.6265876375952579e-01
    x[4,2]    allocateEach[2]  1
    x[4,2]    findWorstP[1,4]  -4.0028307609354985e-01
    x[4,2]    findWorstP[2,4]  -2.2648799736928640e-01
    x[4,2]    findWorstP[3,4]  -2.3446026469296868e-01
    x[4,2]    findWorstP[4,1]  2.6471900089206063e-01
    x[4,2]    findWorstP[4,2]  2.6471900089206063e-01
    x[4,2]    findWorstP[4,3]  2.6471900089206063e-01
    x[4,2]    findWorstP[4,5]  2.6471900089206063e-01
    x[4,2]    findWorstP[4,6]  2.6471900089206063e-01
    x[4,2]    findWorstP[4,7]  2.6471900089206063e-01
    x[4,2]    findWorstP[5,4]  -2.1128744483050053e-02
    x[4,2]    findWorstP[6,4]  -3.8809685449196651e-01
    x[4,2]    findWorstP[7,4]  -0.146542478125882
    x[4,3]    allocateEach[3]  1
    x[4,3]    findWorstP[1,4]  -4.9086742602952071e-01
    x[4,3]    findWorstP[2,4]  -4.8544886550476812e-01
    x[4,3]    findWorstP[3,4]  -1.5950573919588534e-01
    x[4,3]    findWorstP[4,1]  3.9049955396966995e-01
    x[4,3]    findWorstP[4,2]  3.9049955396966995e-01
    x[4,3]    findWorstP[4,3]  3.9049955396966995e-01
    x[4,3]    findWorstP[4,5]  3.9049955396966995e-01
    x[4,3]    findWorstP[4,6]  3.9049955396966995e-01
    x[4,3]    findWorstP[4,7]  3.9049955396966995e-01
    x[4,3]    findWorstP[5,4]  -9.1238613954361913e-01
    x[4,3]    findWorstP[6,4]  -3.8294863091197096e-01
    x[4,3]    findWorstP[7,4]  -5.6257408975444534e-01
    x[5,1]    allocateEach[1]  1
    x[5,1]    findWorstP[1,5]  -7.5149962930511557e-02
    x[5,1]    findWorstP[2,5]  -2.4695823742190065e-01
    x[5,1]    findWorstP[3,5]  -5.7467226996173859e-01
    x[5,1]    findWorstP[4,5]  -2.8902765388046386e-01
    x[5,1]    findWorstP[5,1]  1.9532350455441827e-02
    x[5,1]    findWorstP[5,2]  1.9532350455441827e-02
    x[5,1]    findWorstP[5,3]  1.9532350455441827e-02
    x[5,1]    findWorstP[5,4]  1.9532350455441827e-02
    x[5,1]    findWorstP[5,6]  1.9532350455441827e-02
    x[5,1]    findWorstP[5,7]  1.9532350455441827e-02
    x[5,1]    findWorstP[6,5]  -2.0066757184883457e-01
    x[5,1]    findWorstP[7,5]  -2.6265876375952579e-01
    x[5,2]    allocateEach[2]  1
    x[5,2]    findWorstP[1,5]  -4.0028307609354985e-01
    x[5,2]    findWorstP[2,5]  -2.2648799736928640e-01
    x[5,2]    findWorstP[3,5]  -2.3446026469296868e-01
    x[5,2]    findWorstP[4,5]  -2.6471900089206063e-01
    x[5,2]    findWorstP[5,1]  2.1128744483050053e-02
    x[5,2]    findWorstP[5,2]  2.1128744483050053e-02
    x[5,2]    findWorstP[5,3]  2.1128744483050053e-02
    x[5,2]    findWorstP[5,4]  2.1128744483050053e-02
    x[5,2]    findWorstP[5,6]  2.1128744483050053e-02
    x[5,2]    findWorstP[5,7]  2.1128744483050053e-02
    x[5,2]    findWorstP[6,5]  -3.8809685449196651e-01
    x[5,2]    findWorstP[7,5]  -0.146542478125882
    x[5,3]    allocateEach[3]  1
    x[5,3]    findWorstP[1,5]  -4.9086742602952071e-01
    x[5,3]    findWorstP[2,5]  -4.8544886550476812e-01
    x[5,3]    findWorstP[3,5]  -1.5950573919588534e-01
    x[5,3]    findWorstP[4,5]  -3.9049955396966995e-01
    x[5,3]    findWorstP[5,1]  9.1238613954361913e-01
    x[5,3]    findWorstP[5,2]  9.1238613954361913e-01
    x[5,3]    findWorstP[5,3]  9.1238613954361913e-01
    x[5,3]    findWorstP[5,4]  9.1238613954361913e-01
    x[5,3]    findWorstP[5,6]  9.1238613954361913e-01
    x[5,3]    findWorstP[5,7]  9.1238613954361913e-01
    x[5,3]    findWorstP[6,5]  -3.8294863091197096e-01
    x[5,3]    findWorstP[7,5]  -5.6257408975444534e-01
    x[6,1]    allocateEach[1]  1
    x[6,1]    findWorstP[1,6]  -7.5149962930511557e-02
    x[6,1]    findWorstP[2,6]  -2.4695823742190065e-01
    x[6,1]    findWorstP[3,6]  -5.7467226996173859e-01
    x[6,1]    findWorstP[4,6]  -2.8902765388046386e-01
    x[6,1]    findWorstP[5,6]  -1.9532350455441827e-02
    x[6,1]    findWorstP[6,1]  2.0066757184883457e-01
    x[6,1]    findWorstP[6,2]  2.0066757184883457e-01
    x[6,1]    findWorstP[6,3]  2.0066757184883457e-01
    x[6,1]    findWorstP[6,4]  2.0066757184883457e-01
    x[6,1]    findWorstP[6,5]  2.0066757184883457e-01
    x[6,1]    findWorstP[6,7]  2.0066757184883457e-01
    x[6,1]    findWorstP[7,6]  -2.6265876375952579e-01
    x[6,2]    allocateEach[2]  1
    x[6,2]    findWorstP[1,6]  -4.0028307609354985e-01
    x[6,2]    findWorstP[2,6]  -2.2648799736928640e-01
    x[6,2]    findWorstP[3,6]  -2.3446026469296868e-01
    x[6,2]    findWorstP[4,6]  -2.6471900089206063e-01
    x[6,2]    findWorstP[5,6]  -2.1128744483050053e-02
    x[6,2]    findWorstP[6,1]  3.8809685449196651e-01
    x[6,2]    findWorstP[6,2]  3.8809685449196651e-01
    x[6,2]    findWorstP[6,3]  3.8809685449196651e-01
    x[6,2]    findWorstP[6,4]  3.8809685449196651e-01
    x[6,2]    findWorstP[6,5]  3.8809685449196651e-01
    x[6,2]    findWorstP[6,7]  3.8809685449196651e-01
    x[6,2]    findWorstP[7,6]  -0.146542478125882
    x[6,3]    allocateEach[3]  1
    x[6,3]    findWorstP[1,6]  -4.9086742602952071e-01
    x[6,3]    findWorstP[2,6]  -4.8544886550476812e-01
    x[6,3]    findWorstP[3,6]  -1.5950573919588534e-01
    x[6,3]    findWorstP[4,6]  -3.9049955396966995e-01
    x[6,3]    findWorstP[5,6]  -9.1238613954361913e-01
    x[6,3]    findWorstP[6,1]  3.8294863091197096e-01
    x[6,3]    findWorstP[6,2]  3.8294863091197096e-01
    x[6,3]    findWorstP[6,3]  3.8294863091197096e-01
    x[6,3]    findWorstP[6,4]  3.8294863091197096e-01
    x[6,3]    findWorstP[6,5]  3.8294863091197096e-01
    x[6,3]    findWorstP[6,7]  3.8294863091197096e-01
    x[6,3]    findWorstP[7,6]  -5.6257408975444534e-01
    x[7,1]    allocateEach[1]  1
    x[7,1]    findWorstP[1,7]  -7.5149962930511557e-02
    x[7,1]    findWorstP[2,7]  -2.4695823742190065e-01
    x[7,1]    findWorstP[3,7]  -5.7467226996173859e-01
    x[7,1]    findWorstP[4,7]  -2.8902765388046386e-01
    x[7,1]    findWorstP[5,7]  -1.9532350455441827e-02
    x[7,1]    findWorstP[6,7]  -2.0066757184883457e-01
    x[7,1]    findWorstP[7,1]  2.6265876375952579e-01
    x[7,1]    findWorstP[7,2]  2.6265876375952579e-01
    x[7,1]    findWorstP[7,3]  2.6265876375952579e-01
    x[7,1]    findWorstP[7,4]  2.6265876375952579e-01
    x[7,1]    findWorstP[7,5]  2.6265876375952579e-01
    x[7,1]    findWorstP[7,6]  2.6265876375952579e-01
    x[7,2]    allocateEach[2]  1
    x[7,2]    findWorstP[1,7]  -4.0028307609354985e-01
    x[7,2]    findWorstP[2,7]  -2.2648799736928640e-01
    x[7,2]    findWorstP[3,7]  -2.3446026469296868e-01
    x[7,2]    findWorstP[4,7]  -2.6471900089206063e-01
    x[7,2]    findWorstP[5,7]  -2.1128744483050053e-02
    x[7,2]    findWorstP[6,7]  -3.8809685449196651e-01
    x[7,2]    findWorstP[7,1]  0.146542478125882
    x[7,2]    findWorstP[7,2]  0.146542478125882
    x[7,2]    findWorstP[7,3]  0.146542478125882
    x[7,2]    findWorstP[7,4]  0.146542478125882
    x[7,2]    findWorstP[7,5]  0.146542478125882
    x[7,2]    findWorstP[7,6]  0.146542478125882
    x[7,3]    allocateEach[3]  1
    x[7,3]    findWorstP[1,7]  -4.9086742602952071e-01
    x[7,3]    findWorstP[2,7]  -4.8544886550476812e-01
    x[7,3]    findWorstP[3,7]  -1.5950573919588534e-01
    x[7,3]    findWorstP[4,7]  -3.9049955396966995e-01
    x[7,3]    findWorstP[5,7]  -9.1238613954361913e-01
    x[7,3]    findWorstP[6,7]  -3.8294863091197096e-01
    x[7,3]    findWorstP[7,1]  5.6257408975444534e-01
    x[7,3]    findWorstP[7,2]  5.6257408975444534e-01
    x[7,3]    findWorstP[7,3]  5.6257408975444534e-01
    x[7,3]    findWorstP[7,4]  5.6257408975444534e-01
    x[7,3]    findWorstP[7,5]  5.6257408975444534e-01
    x[7,3]    findWorstP[7,6]  5.6257408975444534e-01
    MARKER    'MARKER'                 'INTEND'
RHS
    RHS1      allocateEach[1]  1
    RHS1      allocateEach[2]  1
    RHS1      allocateEach[3]  1
    RHS1      allocateAllCash  1
BOUNDS
 UP BND1      z         1
 MI BND1      cashProportion[1]
 UP BND1      cashProportion[1]  1
 MI BND1      cashProportion[2]
 UP BND1      cashProportion[2]  1
 MI BND1      cashProportion[3]
 UP BND1      cashProportion[3]  1
 MI BND1      cashProportion[4]
 UP BND1      cashProportion[4]  1
 MI BND1      cashProportion[5]
 UP BND1      cashProportion[5]  1
 MI BND1      cashProportion[6]
 UP BND1      cashProportion[6]  1
 MI BND1      cashProportion[7]
 UP BND1      cashProportion[7]  1
 BV BND1      x[1,1]  
 BV BND1      x[1,2]  
 BV BND1      x[1,3]  
 BV BND1      x[2,1]  
 BV BND1      x[2,2]  
 BV BND1      x[2,3]  
 BV BND1      x[3,1]  
 BV BND1      x[3,2]  
 BV BND1      x[3,3]  
 BV BND1      x[4,1]  
 BV BND1      x[4,2]  
 BV BND1      x[4,3]  
 BV BND1      x[5,1]  
 BV BND1      x[5,2]  
 BV BND1      x[5,3]  
 BV BND1      x[6,1]  
 BV BND1      x[6,2]  
 BV BND1      x[6,3]  
 BV BND1      x[7,1]  
 BV BND1      x[7,2]  
 BV BND1      x[7,3]  
ENDATA
